molecule argon_dimer {
     0 1
     Ar  0.000000   0.000000   1.880079
     --
     0 1
     Ar  0.000000   0.000000  -1.880079

     units angstrom
     no_reorient
     symmetry c1
}

set {
    basis                  aug-cc-pVQZ
    sapt_dft_grac_shift_a  0.139
    sapt_dft_grac_shift_b  0.139
}

energy('sapt(dft)')
